db/data/26524237932867012522265284211225620114.z3.out
sat
-------------------
325.578305306
